\ Model spread_copy
\ LP format - for model browsing. Use MPS format to capture full model detail.
Minimize
 
Subject To
 initial_den[1745]: d[1745,1] = 0.6994141755057419
 biocontrol5[1745,1]: - 1.7947023074324966e-04 d[1745,1] + M[7142,1]
   <= 0.9949899090385714
 R417248: M[7142,1] = 1
Bounds
 d[1745,1] free
Binaries
 M[7142,1]
End
